p edge 300 776
e 1 2 1
e 1 300 1
e 1 3 1
e 1 299 1
e 1 212 1
e 1 276 1
e 1 66 1
e 2 3 1
e 2 4 1
e 2 300 1
e 3 4 1
e 3 5 1
e 3 78 1
e 4 5 1
e 4 6 1
e 5 6 1
e 5 7 1
e 5 261 1
e 6 7 1
e 6 8 1
e 6 281 1
e 7 8 1
e 7 9 1
e 7 20 1
e 7 138 1
e 8 9 1
e 8 10 1
e 8 241 1
e 9 10 1
e 9 11 1
e 9 70 1
e 10 11 1
e 10 12 1
e 11 12 1
e 11 13 1
e 11 235 1
e 12 13 1
e 12 14 1
e 12 225 1
e 13 14 1
e 13 15 1
e 13 61 1
e 13 190 1
e 14 15 1
e 14 16 1
e 14 163 1
e 14 180 1
e 15 16 1
e 15 17 1
e 15 70 1
e 16 17 1
e 16 18 1
e 16 183 1
e 16 270 1
e 17 18 1
e 17 19 1
e 18 19 1
e 18 20 1
e 18 250 1
e 19 20 1
e 19 21 1
e 19 38 1
e 19 159 1
e 20 21 1
e 20 22 1
e 20 263 1
e 20 61 1
e 21 22 1
e 21 23 1
e 21 218 1
e 21 60 1
e 22 23 1
e 22 24 1
e 23 24 1
e 23 25 1
e 23 97 1
e 23 238 1
e 23 91 1
e 23 250 1
e 24 25 1
e 24 26 1
e 24 124 1
e 25 26 1
e 25 27 1
e 26 27 1
e 26 28 1
e 27 28 1
e 27 29 1
e 27 143 1
e 27 157 1
e 28 29 1
e 28 30 1
e 28 263 1
e 28 154 1
e 29 30 1
e 29 31 1
e 29 189 1
e 30 31 1
e 30 32 1
e 30 289 1
e 30 107 1
e 31 32 1
e 31 33 1
e 31 135 1
e 32 33 1
e 32 34 1
e 32 87 1
e 33 34 1
e 33 35 1
e 33 93 1
e 34 35 1
e 34 36 1
e 35 36 1
e 35 37 1
e 36 37 1
e 36 38 1
e 37 38 1
e 37 39 1
e 37 62 1
e 38 39 1
e 38 40 1
e 38 142 1
e 39 40 1
e 39 41 1
e 40 41 1
e 40 42 1
e 41 42 1
e 41 43 1
e 42 43 1
e 42 44 1
e 42 103 1
e 43 44 1
e 43 45 1
e 43 205 1
e 44 45 1
e 44 46 1
e 44 52 1
e 45 46 1
e 45 47 1
e 45 214 1
e 46 47 1
e 46 48 1
e 47 48 1
e 47 49 1
e 47 197 1
e 48 49 1
e 48 50 1
e 49 50 1
e 49 51 1
e 49 98 1
e 50 51 1
e 50 52 1
e 50 78 1
e 51 52 1
e 51 53 1
e 51 118 1
e 52 53 1
e 52 54 1
e 52 108 1
e 53 54 1
e 53 55 1
e 54 55 1
e 54 56 1
e 54 223 1
e 55 56 1
e 55 57 1
e 56 57 1
e 56 58 1
e 56 69 1
e 56 92 1
e 57 58 1
e 57 59 1
e 58 59 1
e 58 60 1
e 59 60 1
e 59 61 1
e 59 179 1
e 60 61 1
e 60 62 1
e 60 300 1
e 61 62 1
e 61 63 1
e 61 179 1
e 62 63 1
e 62 64 1
e 63 64 1
e 63 65 1
e 63 121 1
e 63 261 1
e 64 65 1
e 64 66 1
e 65 66 1
e 65 67 1
e 65 129 1
e 66 67 1
e 66 68 1
e 67 68 1
e 67 69 1
e 67 201 1
e 68 69 1
e 68 70 1
e 69 70 1
e 69 71 1
e 70 71 1
e 70 72 1
e 70 213 1
e 71 72 1
e 71 73 1
e 71 127 1
e 71 203 1
e 72 73 1
e 72 74 1
e 73 74 1
e 73 75 1
e 73 294 1
e 73 136 1
e 74 75 1
e 74 76 1
e 74 152 1
e 75 76 1
e 75 77 1
e 76 77 1
e 76 78 1
e 76 258 1
e 77 78 1
e 77 79 1
e 78 79 1
e 78 80 1
e 78 199 1
e 79 80 1
e 79 81 1
e 80 81 1
e 80 82 1
e 81 82 1
e 81 83 1
e 81 114 1
e 82 83 1
e 82 84 1
e 83 84 1
e 83 85 1
e 83 169 1
e 84 85 1
e 84 86 1
e 85 86 1
e 85 87 1
e 86 87 1
e 86 88 1
e 86 172 1
e 87 88 1
e 87 89 1
e 88 89 1
e 88 90 1
e 88 253 1
e 89 90 1
e 89 91 1
e 89 225 1
e 89 229 1
e 90 91 1
e 90 92 1
e 91 92 1
e 91 93 1
e 91 253 1
e 92 93 1
e 92 94 1
e 92 145 1
e 92 240 1
e 93 94 1
e 93 95 1
e 94 95 1
e 94 96 1
e 94 281 1
e 94 144 1
e 95 96 1
e 95 97 1
e 95 251 1
e 96 97 1
e 96 98 1
e 96 106 1
e 96 103 1
e 97 98 1
e 97 99 1
e 97 285 1
e 97 173 1
e 98 99 1
e 98 100 1
e 98 225 1
e 98 270 1
e 99 100 1
e 99 101 1
e 99 148 1
e 99 172 1
e 100 101 1
e 100 102 1
e 100 163 1
e 101 102 1
e 101 103 1
e 101 216 1
e 102 103 1
e 102 104 1
e 103 104 1
e 103 105 1
e 104 105 1
e 104 106 1
e 104 165 1
e 105 106 1
e 105 107 1
e 105 220 1
e 106 107 1
e 106 108 1
e 106 149 1
e 107 108 1
e 107 109 1
e 107 160 1
e 108 109 1
e 108 110 1
e 109 110 1
e 109 111 1
e 109 237 1
e 110 111 1
e 110 112 1
e 110 133 1
e 110 192 1
e 110 285 1
e 111 112 1
e 111 113 1
e 111 195 1
e 111 230 1
e 112 113 1
e 112 114 1
e 112 266 1
e 112 190 1
e 113 114 1
e 113 115 1
e 113 194 1
e 114 115 1
e 114 116 1
e 115 116 1
e 115 117 1
e 116 117 1
e 116 118 1
e 117 118 1
e 117 119 1
e 117 186 1
e 118 119 1
e 118 120 1
e 118 238 1
e 119 120 1
e 119 121 1
e 119 232 1
e 120 121 1
e 120 122 1
e 121 122 1
e 121 123 1
e 122 123 1
e 122 124 1
e 122 149 1
e 122 237 1
e 122 275 1
e 123 124 1
e 123 125 1
e 124 125 1
e 124 126 1
e 124 226 1
e 125 126 1
e 125 127 1
e 126 127 1
e 126 128 1
e 127 128 1
e 127 129 1
e 127 217 1
e 128 129 1
e 128 130 1
e 128 160 1
e 129 130 1
e 129 131 1
e 130 131 1
e 130 132 1
e 130 218 1
e 131 132 1
e 131 133 1
e 132 133 1
e 132 134 1
e 132 149 1
e 132 153 1
e 133 134 1
e 133 135 1
e 134 135 1
e 134 136 1
e 135 136 1
e 135 137 1
e 135 214 1
e 135 141 1
e 135 267 1
e 136 137 1
e 136 138 1
e 136 238 1
e 136 218 1
e 137 138 1
e 137 139 1
e 137 276 1
e 138 139 1
e 138 140 1
e 138 268 1
e 139 140 1
e 139 141 1
e 140 141 1
e 140 142 1
e 140 173 1
e 141 142 1
e 141 143 1
e 141 298 1
e 142 143 1
e 142 144 1
e 143 144 1
e 143 145 1
e 143 233 1
e 144 145 1
e 144 146 1
e 144 167 1
e 144 252 1
e 145 146 1
e 145 147 1
e 146 147 1
e 146 148 1
e 146 170 1
e 146 187 1
e 147 148 1
e 147 149 1
e 148 149 1
e 148 150 1
e 149 150 1
e 149 151 1
e 149 228 1
e 149 157 1
e 150 151 1
e 150 152 1
e 151 152 1
e 151 153 1
e 152 153 1
e 152 154 1
e 152 256 1
e 153 154 1
e 153 155 1
e 154 155 1
e 154 156 1
e 155 156 1
e 155 157 1
e 155 223 1
e 156 157 1
e 156 158 1
e 157 158 1
e 157 159 1
e 158 159 1
e 158 160 1
e 158 266 1
e 159 160 1
e 159 161 1
e 159 224 1
e 160 161 1
e 160 162 1
e 161 162 1
e 161 163 1
e 162 163 1
e 162 164 1
e 163 164 1
e 163 165 1
e 163 182 1
e 164 165 1
e 164 166 1
e 165 166 1
e 165 167 1
e 165 224 1
e 165 176 1
e 166 167 1
e 166 168 1
e 167 168 1
e 167 169 1
e 168 169 1
e 168 170 1
e 169 170 1
e 169 171 1
e 170 171 1
e 170 172 1
e 171 172 1
e 171 173 1
e 172 173 1
e 172 174 1
e 173 174 1
e 173 175 1
e 174 175 1
e 174 176 1
e 174 244 1
e 175 176 1
e 175 177 1
e 175 254 1
e 175 272 1
e 176 177 1
e 176 178 1
e 177 178 1
e 177 179 1
e 178 179 1
e 178 180 1
e 179 180 1
e 179 181 1
e 180 181 1
e 180 182 1
e 180 263 1
e 181 182 1
e 181 183 1
e 182 183 1
e 182 184 1
e 182 191 1
e 183 184 1
e 183 185 1
e 184 185 1
e 184 186 1
e 184 232 1
e 184 258 1
e 185 186 1
e 185 187 1
e 186 187 1
e 186 188 1
e 187 188 1
e 187 189 1
e 188 189 1
e 188 190 1
e 189 190 1
e 189 191 1
e 190 191 1
e 190 192 1
e 190 286 1
e 191 192 1
e 191 193 1
e 192 193 1
e 192 194 1
e 192 221 1
e 193 194 1
e 193 195 1
e 194 195 1
e 194 196 1
e 195 196 1
e 195 197 1
e 196 197 1
e 196 198 1
e 196 247 1
e 197 198 1
e 197 199 1
e 197 273 1
e 198 199 1
e 198 200 1
e 198 255 1
e 199 200 1
e 199 201 1
e 199 293 1
e 200 201 1
e 200 202 1
e 201 202 1
e 201 203 1
e 201 215 1
e 202 203 1
e 202 204 1
e 203 204 1
e 203 205 1
e 203 279 1
e 204 205 1
e 204 206 1
e 205 206 1
e 205 207 1
e 205 217 1
e 206 207 1
e 206 208 1
e 207 208 1
e 207 209 1
e 208 209 1
e 208 210 1
e 209 210 1
e 209 211 1
e 210 211 1
e 210 212 1
e 210 236 1
e 211 212 1
e 211 213 1
e 211 298 1
e 212 213 1
e 212 214 1
e 212 259 1
e 213 214 1
e 213 215 1
e 214 215 1
e 214 216 1
e 215 216 1
e 215 217 1
e 216 217 1
e 216 218 1
e 217 218 1
e 217 219 1
e 217 280 1
e 218 219 1
e 218 220 1
e 219 220 1
e 219 221 1
e 220 221 1
e 220 222 1
e 221 222 1
e 221 223 1
e 222 223 1
e 222 224 1
e 223 224 1
e 223 225 1
e 223 259 1
e 224 225 1
e 224 226 1
e 225 226 1
e 225 227 1
e 226 227 1
e 226 228 1
e 227 228 1
e 227 229 1
e 227 282 1
e 228 229 1
e 228 230 1
e 228 232 1
e 229 230 1
e 229 231 1
e 229 262 1
e 230 231 1
e 230 232 1
e 230 260 1
e 231 232 1
e 231 233 1
e 232 233 1
e 232 234 1
e 233 234 1
e 233 235 1
e 234 235 1
e 234 236 1
e 235 236 1
e 235 237 1
e 235 272 1
e 236 237 1
e 236 238 1
e 236 262 1
e 237 238 1
e 237 239 1
e 238 239 1
e 238 240 1
e 239 240 1
e 239 241 1
e 240 241 1
e 240 242 1
e 241 242 1
e 241 243 1
e 242 243 1
e 242 244 1
e 243 244 1
e 243 245 1
e 243 247 1
e 244 245 1
e 244 246 1
e 244 284 1
e 245 246 1
e 245 247 1
e 245 300 1
e 246 247 1
e 246 248 1
e 246 260 1
e 247 248 1
e 247 249 1
e 248 249 1
e 248 250 1
e 249 250 1
e 249 251 1
e 250 251 1
e 250 252 1
e 251 252 1
e 251 253 1
e 252 253 1
e 252 254 1
e 253 254 1
e 253 255 1
e 254 255 1
e 254 256 1
e 255 256 1
e 255 257 1
e 256 257 1
e 256 258 1
e 257 258 1
e 257 259 1
e 258 259 1
e 258 260 1
e 259 260 1
e 259 261 1
e 260 261 1
e 260 262 1
e 261 262 1
e 261 263 1
e 262 263 1
e 262 264 1
e 263 264 1
e 263 265 1
e 264 265 1
e 264 266 1
e 264 269 1
e 265 266 1
e 265 267 1
e 265 288 1
e 266 267 1
e 266 268 1
e 266 297 1
e 267 268 1
e 267 269 1
e 268 269 1
e 268 270 1
e 269 270 1
e 269 271 1
e 270 271 1
e 270 272 1
e 271 272 1
e 271 273 1
e 272 273 1
e 272 274 1
e 273 274 1
e 273 275 1
e 274 275 1
e 274 276 1
e 274 280 1
e 275 276 1
e 275 277 1
e 276 277 1
e 276 278 1
e 277 278 1
e 277 279 1
e 278 279 1
e 278 280 1
e 279 280 1
e 279 281 1
e 280 281 1
e 280 282 1
e 281 282 1
e 281 283 1
e 282 283 1
e 282 284 1
e 283 284 1
e 283 285 1
e 284 285 1
e 284 286 1
e 285 286 1
e 285 287 1
e 286 287 1
e 286 288 1
e 286 298 1
e 287 288 1
e 287 289 1
e 288 289 1
e 288 290 1
e 289 290 1
e 289 291 1
e 290 291 1
e 290 292 1
e 291 292 1
e 291 293 1
e 292 293 1
e 292 294 1
e 293 294 1
e 293 295 1
e 294 295 1
e 294 296 1
e 295 296 1
e 295 297 1
e 296 297 1
e 296 298 1
e 297 298 1
e 297 299 1
e 298 299 1
e 298 300 1
e 299 300 1